run:
Enter the file name: C:\Users\nabreu\Desktop\Algorithms\inputs\inputs\mini1.tsp

NAME: mini1.tsp
TYPE: EUC_2D
DIMENSION: 6
TOUR_SECTION
4
1
2
3
6
5
-1


BUILD SUCCESSFUL (total time: 11 seconds)


run:
Enter the file name: C:\Users\nabreu\Desktop\Algorithms\inputs\inputs\mini2.tsp

NAME: mini2.tsp
TYPE: EUC_2D
DIMENSION: 9
TOUR_SECTION
9
2
1
6
5
4
8
7
3
-1


BUILD SUCCESSFUL (total time: 31 seconds)


run:
Enter the file name: C:\Users\nabreu\Desktop\Algorithms\inputs\inputs\brute10.tsp

NAME: brute10.tsp
TYPE: EUC_2D
DIMENSION: 10
TOUR_SECTION
2
6
7
8
4
9
10
1
3
5
-1


BUILD SUCCESSFUL (total time: 1 minute 3 seconds)


run:
Enter the file name: C:\Users\nabreu\Desktop\Algorithms\inputs\inputs\brute11.tsp

NAME: brute11.tsp
TYPE: EUC_2D
DIMENSION: 11
TOUR_SECTION
1
3
5
2
6
7
8
4
9
11
10
-1


BUILD SUCCESSFUL (total time: 5 minutes 37 seconds)



